NAME 
ROWS
 N  OBJ
 L  R0      
 L  R1      
 L  R2      
 E  R3      
 E  R4      
 E  R5      
 E  R6      
 E  R7      
 E  R8      
 E  R9      
 E  R10     
 E  R11     
 E  R12     
 E  R13     
 E  R14     
 E  R15     
 E  R16     
 E  R17     
 E  R18     
 E  R19     
 E  R20     
 E  R21     
 E  R22     
COLUMNS
    MARKER    'MARKER'                 'INTORG'
    I0(11)    OBJ       53
    I0(11)    R0        -76
    I0(11)    R1        110
    I0(11)    R2        175
    I0(11)    R3        5
    I0(11)    R4        12
    I0(11)    R5        18
    I0(11)    R6        7
    I0(11)    R7        19
    I0(11)    R8        18
    I0(11)    R12       15
    I0(11)    R22       1
    I1(10)    OBJ       -19
    I1(10)    R0        -164
    I1(10)    R1        124
    I1(10)    R2        24
    I1(10)    R3        3
    I1(10)    R4        17
    I1(10)    R6        19
    I1(10)    R7        11
    I1(10)    R11       17
    I1(10)    R12       5
    I1(10)    R22       1
    I2(9)     OBJ       -34
    I2(9)     R0        -23
    I2(9)     R1        46
    I2(9)     R2        -132
    I2(9)     R3        7
    I2(9)     R6        13
    I2(9)     R7        4
    I2(9)     R8        11
    I2(9)     R12       16
    I2(9)     R22       1
    I3(10)    OBJ       -158
    I3(10)    R0        -35
    I3(10)    R1        -112
    I3(10)    R2        189
    I3(10)    R3        3
    I3(10)    R4        -1
    I3(10)    R6        19
    I3(10)    R8        6
    I3(10)    R9        6
    I3(10)    R12       7
    I3(10)    R22       1
    I4(10)    OBJ       56
    I4(10)    R1        118
    I4(10)    R2        109
    I4(10)    R3        7
    I4(10)    R5        17
    I4(10)    R6        2
    I4(10)    R8        1
    I4(10)    R9        12
    I4(10)    R10       4
    I4(10)    R11       8
    I4(10)    R22       1
    I5(11)    OBJ       19
    I5(11)    R0        89
    I5(11)    R1        171
    I5(11)    R2        67
    I5(11)    R3        19
    I5(11)    R4        7
    I5(11)    R5        17
    I5(11)    R6        1
    I5(11)    R8        1
    I5(11)    R10       10
    I5(11)    R12       1
    I5(11)    R22       1
    I6(11)    OBJ       159
    I6(11)    R0        42
    I6(11)    R1        -111
    I6(11)    R2        26
    I6(11)    R3        6
    I6(11)    R5        7
    I6(11)    R6        19
    I6(11)    R8        -1
    I6(11)    R10       18
    I6(11)    R11       4
    I6(11)    R12       17
    I6(11)    R22       1
    I7(10)    OBJ       -200
    I7(10)    R0        -118
    I7(10)    R1        -58
    I7(10)    R2        -113
    I7(10)    R3        19
    I7(10)    R4        12
    I7(10)    R5        11
    I7(10)    R6        8
    I7(10)    R8        3
    I7(10)    R11       2
    I7(10)    R22       1
    I8(9)     OBJ       7
    I8(9)     R0        -61
    I8(9)     R1        132
    I8(9)     R2        -160
    I8(9)     R3        6
    I8(9)     R4        12
    I8(9)     R7        19
    I8(9)     R10       2
    I8(9)     R11       5
    I8(9)     R22       1
    I9(10)    OBJ       154
    I9(10)    R0        68
    I9(10)    R2        163
    I9(10)    R3        18
    I9(10)    R5        15
    I9(10)    R8        2
    I9(10)    R9        12
    I9(10)    R10       17
    I9(10)    R11       10
    I9(10)    R12       9
    I9(10)    R22       1
    MARKER    'MARKER'                 'INTEND'
    C10(14)   OBJ       -7
    C10(14)   R0        8
    C10(14)   R1        5
    C10(14)   R2        7
    C10(14)   R3        8
    C10(14)   R4        10
    C10(14)   R6        15
    C10(14)   R7        10
    C10(14)   R10       4
    C10(14)   R11       19
    C10(14)   R12       1
    C10(14)   R16       17
    C10(14)   R17       3
    C10(14)   R18       19
    C10(14)   R21       19
    C11(14)   OBJ       4
    C11(14)   R0        -5
    C11(14)   R1        -8
    C11(14)   R2        -7
    C11(14)   R4        13
    C11(14)   R7        15
    C11(14)   R8        9
    C11(14)   R9        12
    C11(14)   R10       8
    C11(14)   R14       15
    C11(14)   R15       12
    C11(14)   R17       6
    C11(14)   R18       -1
    C11(14)   R19       16
    C11(14)   R20       6
    C12(16)   OBJ       5
    C12(16)   R0        -2
    C12(16)   R1        -8
    C12(16)   R2        -3
    C12(16)   R3        4
    C12(16)   R7        16
    C12(16)   R8        4
    C12(16)   R10       14
    C12(16)   R11       19
    C12(16)   R12       10
    C12(16)   R13       19
    C12(16)   R14       -1
    C12(16)   R15       1
    C12(16)   R16       9
    C12(16)   R19       7
    C12(16)   R20       8
    C12(16)   R21       4
    C13(16)   OBJ       5
    C13(16)   R0        -9
    C13(16)   R1        -10
    C13(16)   R2        6
    C13(16)   R3        9
    C13(16)   R6        13
    C13(16)   R7        16
    C13(16)   R9        8
    C13(16)   R10       13
    C13(16)   R12       10
    C13(16)   R14       13
    C13(16)   R15       1
    C13(16)   R16       19
    C13(16)   R17       5
    C13(16)   R18       7
    C13(16)   R19       -1
    C13(16)   R21       17
    C14(15)   OBJ       6
    C14(15)   R0        -1
    C14(15)   R1        -7
    C14(15)   R2        -8
    C14(15)   R3        18
    C14(15)   R4        5
    C14(15)   R7        7
    C14(15)   R8        9
    C14(15)   R9        5
    C14(15)   R10       15
    C14(15)   R11       17
    C14(15)   R13       4
    C14(15)   R14       4
    C14(15)   R16       14
    C14(15)   R18       14
    C14(15)   R19       10
    C15(12)   OBJ       3
    C15(12)   R1        -3
    C15(12)   R2        -3
    C15(12)   R3        18
    C15(12)   R4        7
    C15(12)   R6        5
    C15(12)   R7        8
    C15(12)   R8        10
    C15(12)   R10       12
    C15(12)   R13       8
    C15(12)   R16       3
    C15(12)   R17       10
    C15(12)   R21       13
    C16(16)   OBJ       -4
    C16(16)   R0        -3
    C16(16)   R1        5
    C16(16)   R2        -6
    C16(16)   R3        18
    C16(16)   R5        13
    C16(16)   R6        6
    C16(16)   R7        9
    C16(16)   R8        10
    C16(16)   R9        11
    C16(16)   R10       3
    C16(16)   R11       5
    C16(16)   R12       14
    C16(16)   R15       9
    C16(16)   R17       16
    C16(16)   R18       1
    C16(16)   R21       9
    C17(17)   OBJ       -6
    C17(17)   R0        -8
    C17(17)   R1        5
    C17(17)   R3        9
    C17(17)   R4        6
    C17(17)   R6        -1
    C17(17)   R8        12
    C17(17)   R10       3
    C17(17)   R11       -1
    C17(17)   R12       18
    C17(17)   R13       17
    C17(17)   R14       9
    C17(17)   R15       13
    C17(17)   R16       6
    C17(17)   R17       1
    C17(17)   R18       4
    C17(17)   R19       16
    C17(17)   R21       16
    C18(15)   OBJ       4
    C18(15)   R0        -8
    C18(15)   R4        1
    C18(15)   R5        11
    C18(15)   R6        2
    C18(15)   R7        17
    C18(15)   R8        3
    C18(15)   R10       4
    C18(15)   R11       3
    C18(15)   R12       14
    C18(15)   R14       8
    C18(15)   R15       17
    C18(15)   R16       16
    C18(15)   R17       7
    C18(15)   R19       8
    C18(15)   R21       3
    C19(18)   R0        5
    C19(18)   R1        -1
    C19(18)   R2        -6
    C19(18)   R3        15
    C19(18)   R4        9
    C19(18)   R5        1
    C19(18)   R7        14
    C19(18)   R8        19
    C19(18)   R9        4
    C19(18)   R11       5
    C19(18)   R12       17
    C19(18)   R13       3
    C19(18)   R16       2
    C19(18)   R17       13
    C19(18)   R18       4
    C19(18)   R19       9
    C19(18)   R20       6
    C19(18)   R21       -1
    C20(1)    R3        1
    C21(1)    R4        1
    C22(1)    R5        1
    C23(1)    R6        1
    C24(1)    R7        1
    C25(1)    R8        1
    C26(1)    R9        1
    C27(1)    R10       1
    C28(1)    R11       1
    C29(1)    R12       1
    C30(1)    R13       1
    C31(1)    R14       1
    C32(1)    R15       1
    C33(1)    R16       1
    C34(1)    R17       1
    C35(1)    R18       1
    C36(1)    R19       1
    C37(1)    R20       1
    C38(1)    R21       1
    C39(1)    R22       1
RHS
    RHS1      R0        -2.6993706293706344e+02
    RHS1      R1        -2.1090209790209792e+02
    RHS1      R2        -2.4566433566433808e+01
    RHS1      R3        70
    RHS1      R4        86
    RHS1      R5        51
    RHS1      R6        60
    RHS1      R7        59
    RHS1      R8        55
    RHS1      R9        81
    RHS1      R10       69
    RHS1      R11       68
    RHS1      R12       62
    RHS1      R13       91
    RHS1      R14       88
    RHS1      R15       87
    RHS1      R16       57
    RHS1      R17       79
    RHS1      R18       80
    RHS1      R19       92
    RHS1      R20       65
    RHS1      R21       89
    RHS1      R22       3
BOUNDS
 UP BND1      I0(11)    2
 UP BND1      I1(10)    2
 UP BND1      I2(9)     2
 UP BND1      I3(10)    2
 UP BND1      I4(10)    2
 UP BND1      I5(11)    2
 UP BND1      I6(11)    2
 UP BND1      I7(10)    2
 UP BND1      I8(9)     2
 UP BND1      I9(10)    2
ENDATA
